\ This file has been generated by DOcplex
\ ENCODING=ISO-8859-1
\Problem name: 2generals problem

Minimize
 obj: V
Subject To
 c1: V + 2.750781250000 a1_u0_x0 + 9.531250000000 a1_u1_x0
     + 6.020312500000 a1_u0_x1 + 9.531250000000 a1_u1_x1 >= 0
 c2: V + 9.531250000000 a1_u0_x0 + 2.031250000000 a1_u1_x0
     + 9.531250000000 a1_u0_x1 + 14.531250000000 a1_u1_x1 >= 0
 c3: a1_u0_x0 + a1_u1_x0 = 1
 c4: a1_u0_x1 + a1_u1_x1 = 1

Bounds
       V Free
End
